kipet_pkg_examples/_reconciled.col
Z[0.333333,A]
Z[0.333333,B]
Z[0.333333,C]
Z[1,A]
Z[1,B]
Z[1,C]
X[0.333333,T]
X[0.333333,V]
X[1,T]
X[1,V]
dZdt[0.333333,A]
dZdt[0.333333,B]
dZdt[0.333333,C]
dZdt[1,A]
dZdt[1,B]
dZdt[1,C]
dXdt[0.333333,T]
dXdt[0.333333,V]
dXdt[1,T]
dXdt[1,V]
Y[0,k1]
Y[0,k2]
Y[0,rA]
Y[0,rB]
Y[0.333333,k1]
Y[0.333333,k2]
Y[0.333333,rA]
Y[0.333333,rB]
Y[1,k1]
Y[1,k2]
Y[1,rA]
Y[1,rB]
